c generated by sgen
p cnf 129 268
-2 -3 -4 0
-1 -3 -4 0
-1 -2 -4 0
-1 -2 -3 0
-6 -7 -8 0
-5 -7 -8 0
-5 -6 -8 0
-5 -6 -7 0
-10 -11 -12 0
-9 -11 -12 0
-9 -10 -12 0
-9 -10 -11 0
-14 -15 -16 0
-13 -15 -16 0
-13 -14 -16 0
-13 -14 -15 0
-18 -19 -20 0
-17 -19 -20 0
-17 -18 -20 0
-17 -18 -19 0
-22 -23 -24 0
-21 -23 -24 0
-21 -22 -24 0
-21 -22 -23 0
-26 -27 -28 0
-25 -27 -28 0
-25 -26 -28 0
-25 -26 -27 0
-30 -31 -32 0
-29 -31 -32 0
-29 -30 -32 0
-29 -30 -31 0
-34 -35 -36 0
-33 -35 -36 0
-33 -34 -36 0
-33 -34 -35 0
-38 -39 -40 0
-37 -39 -40 0
-37 -38 -40 0
-37 -38 -39 0
-42 -43 -44 0
-41 -43 -44 0
-41 -42 -44 0
-41 -42 -43 0
-46 -47 -48 0
-45 -47 -48 0
-45 -46 -48 0
-45 -46 -47 0
-50 -51 -52 0
-49 -51 -52 0
-49 -50 -52 0
-49 -50 -51 0
-54 -55 -56 0
-53 -55 -56 0
-53 -54 -56 0
-53 -54 -55 0
-58 -59 -60 0
-57 -59 -60 0
-57 -58 -60 0
-57 -58 -59 0
-62 -63 -64 0
-61 -63 -64 0
-61 -62 -64 0
-61 -62 -63 0
-66 -67 -68 0
-65 -67 -68 0
-65 -66 -68 0
-65 -66 -67 0
-70 -71 -72 0
-69 -71 -72 0
-69 -70 -72 0
-69 -70 -71 0
-74 -75 -76 0
-73 -75 -76 0
-73 -74 -76 0
-73 -74 -75 0
-78 -79 -80 0
-77 -79 -80 0
-77 -78 -80 0
-77 -78 -79 0
-82 -83 -84 0
-81 -83 -84 0
-81 -82 -84 0
-81 -82 -83 0
-86 -87 -88 0
-85 -87 -88 0
-85 -86 -88 0
-85 -86 -87 0
-90 -91 -92 0
-89 -91 -92 0
-89 -90 -92 0
-89 -90 -91 0
-94 -95 -96 0
-93 -95 -96 0
-93 -94 -96 0
-93 -94 -95 0
-98 -99 -100 0
-97 -99 -100 0
-97 -98 -100 0
-97 -98 -99 0
-102 -103 -104 0
-101 -103 -104 0
-101 -102 -104 0
-101 -102 -103 0
-106 -107 -108 0
-105 -107 -108 0
-105 -106 -108 0
-105 -106 -107 0
-110 -111 -112 0
-109 -111 -112 0
-109 -110 -112 0
-109 -110 -111 0
-114 -115 -116 0
-113 -115 -116 0
-113 -114 -116 0
-113 -114 -115 0
-118 -119 -120 0
-117 -119 -120 0
-117 -118 -120 0
-117 -118 -119 0
-122 -123 -124 0
-121 -123 -124 0
-121 -122 -124 0
-121 -122 -123 0
-125 -126 -127 0
-125 -126 -128 0
-125 -126 -129 0
-125 -127 -128 0
-125 -127 -129 0
-125 -128 -129 0
-126 -127 -128 0
-126 -127 -129 0
-126 -128 -129 0
-127 -128 -129 0
49 47 104 0
74 47 104 0
74 49 104 0
74 49 47 0
126 70 12 0
96 70 12 0
96 126 12 0
96 126 70 0
107 5 85 0
127 5 85 0
127 107 85 0
127 107 5 0
87 76 29 0
109 76 29 0
109 87 29 0
109 87 76 0
42 13 17 0
52 13 17 0
52 42 17 0
52 42 13 0
34 128 31 0
50 128 31 0
50 34 31 0
50 34 128 0
82 26 15 0
88 26 15 0
88 82 15 0
88 82 26 0
7 83 116 0
64 83 116 0
64 7 116 0
64 7 83 0
55 46 115 0
40 46 115 0
40 55 115 0
40 55 46 0
103 111 63 0
33 111 63 0
33 103 63 0
33 103 111 0
81 56 44 0
110 56 44 0
110 81 44 0
110 81 56 0
1 100 108 0
10 100 108 0
10 1 108 0
10 1 100 0
77 113 36 0
14 113 36 0
14 77 36 0
14 77 113 0
98 75 20 0
28 75 20 0
28 98 20 0
28 98 75 0
121 60 101 0
95 60 101 0
95 121 101 0
95 121 60 0
54 27 94 0
4 27 94 0
4 54 94 0
4 54 27 0
80 124 30 0
6 124 30 0
6 80 30 0
6 80 124 0
123 91 97 0
45 91 97 0
45 123 97 0
45 123 91 0
62 59 32 0
18 59 32 0
18 62 32 0
18 62 59 0
11 23 38 0
112 23 38 0
112 11 38 0
112 11 23 0
99 65 86 0
41 65 86 0
41 99 86 0
41 99 65 0
125 89 43 0
78 89 43 0
78 125 43 0
78 125 89 0
8 24 93 0
35 24 93 0
35 8 93 0
35 8 24 0
66 90 57 0
9 90 57 0
9 66 57 0
9 66 90 0
69 106 67 0
48 106 67 0
48 69 67 0
48 69 106 0
72 3 92 0
61 3 92 0
61 72 92 0
61 72 3 0
25 114 117 0
68 114 117 0
68 25 117 0
68 25 114 0
105 73 84 0
118 73 84 0
118 105 84 0
118 105 73 0
39 71 16 0
120 71 16 0
120 39 16 0
120 39 71 0
37 19 2 0
102 19 2 0
102 37 2 0
102 37 19 0
21 79 58 0
129 79 58 0
129 21 58 0
129 21 79 0
122 51 119 0
122 51 53 0
122 51 22 0
122 119 53 0
122 119 22 0
122 53 22 0
51 119 53 0
51 119 22 0
51 53 22 0
119 53 22 0
